\ Exact one-hot deterministic governed stochastic program
Minimize
 obj: 295 z_0 + 295 z_1 + 220 z_2 + 220 z_3 + 200 z_4 + 295 z_5 + 295 z_6 + 220 z_7 + 220 z_8 + 200 z_9 + 220 z_10 + 220 z_11 + 552.5 z_12 + 348.75 z_13 + 152.5 z_14 + 220 z_15 + 220 z_16 + 348.75 z_17 + 552.5 z_18 + 152.5 z_19 + 200 z_20 + 200 z_21 + 152.5 z_22 + 152.5 z_23 + 195 z_24 + 295 z_25 + 295 z_26 + 220 z_27 + 220 z_28 + 200 z_29 + 295 z_30 + 295 z_31 + 220 z_32 + 220 z_33 + 200 z_34 + 220 z_35 + 220 z_36 + 552.5 z_37 + 348.75 z_38 + 152.5 z_39 + 220 z_40 + 220 z_41 + 348.75 z_42 + 552.5 z_43 + 152.5 z_44 + 200 z_45 + 200 z_46 + 152.5 z_47 + 152.5 z_48 + 195 z_49 + 220 z_50 + 220 z_51 + 552.5 z_52 + 348.75 z_53 + 152.5 z_54 + 220 z_55 + 220 z_56 + 552.5 z_57 + 348.75 z_58 + 152.5 z_59 + 552.5 z_60 + 552.5 z_61 + 605 z_62 + 515 z_63 + 505 z_64 + 348.75 z_65 + 348.75 z_66 + 515 z_67 + 515 z_68 + 277.5 z_69 + 152.5 z_70 + 152.5 z_71 + 505 z_72 + 277.5 z_73 + 150 z_74 + 220 z_75 + 220 z_76 + 348.75 z_77 + 552.5 z_78 + 152.5 z_79 + 220 z_80 + 220 z_81 + 348.75 z_82 + 552.5 z_83 + 152.5 z_84 + 348.75 z_85 + 348.75 z_86 + 515 z_87 + 515 z_88 + 277.5 z_89 + 552.5 z_90 + 552.5 z_91 + 515 z_92 + 605 z_93 + 505 z_94 + 152.5 z_95 + 152.5 z_96 + 277.5 z_97 + 505 z_98 + 150 z_99 + 200 z_100 + 200 z_101 + 152.5 z_102 + 152.5 z_103 + 195 z_104 + 200 z_105 + 200 z_106 + 152.5 z_107 + 152.5 z_108 + 195 z_109 + 152.5 z_110 + 152.5 z_111 + 505 z_112 + 277.5 z_113 + 150 z_114 + 152.5 z_115 + 152.5 z_116 + 277.5 z_117 + 505 z_118 + 150 z_119 + 195 z_120 + 195 z_121 + 150 z_122 + 150 z_123 + 190 z_124
Subject To
 one_sequence: z_0 + z_1 + z_2 + z_3 + z_4 + z_5 + z_6 + z_7 + z_8 + z_9 + z_10 + z_11 + z_12 + z_13 + z_14 + z_15 + z_16 + z_17 + z_18 + z_19 + z_20 + z_21 + z_22 + z_23 + z_24 + z_25 + z_26 + z_27 + z_28 + z_29 + z_30 + z_31 + z_32 + z_33 + z_34 + z_35 + z_36 + z_37 + z_38 + z_39 + z_40 + z_41 + z_42 + z_43 + z_44 + z_45 + z_46 + z_47 + z_48 + z_49 + z_50 + z_51 + z_52 + z_53 + z_54 + z_55 + z_56 + z_57 + z_58 + z_59 + z_60 + z_61 + z_62 + z_63 + z_64 + z_65 + z_66 + z_67 + z_68 + z_69 + z_70 + z_71 + z_72 + z_73 + z_74 + z_75 + z_76 + z_77 + z_78 + z_79 + z_80 + z_81 + z_82 + z_83 + z_84 + z_85 + z_86 + z_87 + z_88 + z_89 + z_90 + z_91 + z_92 + z_93 + z_94 + z_95 + z_96 + z_97 + z_98 + z_99 + z_100 + z_101 + z_102 + z_103 + z_104 + z_105 + z_106 + z_107 + z_108 + z_109 + z_110 + z_111 + z_112 + z_113 + z_114 + z_115 + z_116 + z_117 + z_118 + z_119 + z_120 + z_121 + z_122 + z_123 + z_124 = 1
 budget_prob_catastrophic: 0 z_0 + 0 z_1 + 0 z_2 + 0 z_3 + 0 z_4 + 0 z_5 + 0 z_6 + 0 z_7 + 0 z_8 + 0 z_9 + 0 z_10 + 0 z_11 + 0.5 z_12 + 0.25 z_13 + 0 z_14 + 0 z_15 + 0 z_16 + 0.25 z_17 + 0.5 z_18 + 0 z_19 + 0 z_20 + 0 z_21 + 0 z_22 + 0 z_23 + 0 z_24 + 0 z_25 + 0 z_26 + 0 z_27 + 0 z_28 + 0 z_29 + 0 z_30 + 0 z_31 + 0 z_32 + 0 z_33 + 0 z_34 + 0 z_35 + 0 z_36 + 0.5 z_37 + 0.25 z_38 + 0 z_39 + 0 z_40 + 0 z_41 + 0.25 z_42 + 0.5 z_43 + 0 z_44 + 0 z_45 + 0 z_46 + 0 z_47 + 0 z_48 + 0 z_49 + 0 z_50 + 0 z_51 + 0.5 z_52 + 0.25 z_53 + 0 z_54 + 0 z_55 + 0 z_56 + 0.5 z_57 + 0.25 z_58 + 0 z_59 + 0.5 z_60 + 0.5 z_61 + 0.5 z_62 + 0.5 z_63 + 0.5 z_64 + 0.25 z_65 + 0.25 z_66 + 0.5 z_67 + 0.5 z_68 + 0.25 z_69 + 0 z_70 + 0 z_71 + 0.5 z_72 + 0.25 z_73 + 0 z_74 + 0 z_75 + 0 z_76 + 0.25 z_77 + 0.5 z_78 + 0 z_79 + 0 z_80 + 0 z_81 + 0.25 z_82 + 0.5 z_83 + 0 z_84 + 0.25 z_85 + 0.25 z_86 + 0.5 z_87 + 0.5 z_88 + 0.25 z_89 + 0.5 z_90 + 0.5 z_91 + 0.5 z_92 + 0.5 z_93 + 0.5 z_94 + 0 z_95 + 0 z_96 + 0.25 z_97 + 0.5 z_98 + 0 z_99 + 0 z_100 + 0 z_101 + 0 z_102 + 0 z_103 + 0 z_104 + 0 z_105 + 0 z_106 + 0 z_107 + 0 z_108 + 0 z_109 + 0 z_110 + 0 z_111 + 0.5 z_112 + 0.25 z_113 + 0 z_114 + 0 z_115 + 0 z_116 + 0.25 z_117 + 0.5 z_118 + 0 z_119 + 0 z_120 + 0 z_121 + 0 z_122 + 0 z_123 + 0 z_124 <= 0
 budget_prob_degraded: 1 z_0 + 1 z_1 + 0.5 z_2 + 0.5 z_3 + 1 z_4 + 1 z_5 + 1 z_6 + 0.5 z_7 + 0.5 z_8 + 1 z_9 + 0.5 z_10 + 0.5 z_11 + 0.5 z_12 + 0.25 z_13 + 0.5 z_14 + 0.5 z_15 + 0.5 z_16 + 0.25 z_17 + 0.5 z_18 + 0.5 z_19 + 1 z_20 + 1 z_21 + 0.5 z_22 + 0.5 z_23 + 1 z_24 + 1 z_25 + 1 z_26 + 0.5 z_27 + 0.5 z_28 + 1 z_29 + 1 z_30 + 1 z_31 + 0.5 z_32 + 0.5 z_33 + 1 z_34 + 0.5 z_35 + 0.5 z_36 + 0.5 z_37 + 0.25 z_38 + 0.5 z_39 + 0.5 z_40 + 0.5 z_41 + 0.25 z_42 + 0.5 z_43 + 0.5 z_44 + 1 z_45 + 1 z_46 + 0.5 z_47 + 0.5 z_48 + 1 z_49 + 0.5 z_50 + 0.5 z_51 + 0.5 z_52 + 0.25 z_53 + 0.5 z_54 + 0.5 z_55 + 0.5 z_56 + 0.5 z_57 + 0.25 z_58 + 0.5 z_59 + 0.5 z_60 + 0.5 z_61 + 0.5 z_62 + 0.25 z_63 + 0.5 z_64 + 0.25 z_65 + 0.25 z_66 + 0.25 z_67 + 0.25 z_68 + 0.25 z_69 + 0.5 z_70 + 0.5 z_71 + 0.5 z_72 + 0.25 z_73 + 0.5 z_74 + 0.5 z_75 + 0.5 z_76 + 0.25 z_77 + 0.5 z_78 + 0.5 z_79 + 0.5 z_80 + 0.5 z_81 + 0.25 z_82 + 0.5 z_83 + 0.5 z_84 + 0.25 z_85 + 0.25 z_86 + 0.25 z_87 + 0.25 z_88 + 0.25 z_89 + 0.5 z_90 + 0.5 z_91 + 0.25 z_92 + 0.5 z_93 + 0.5 z_94 + 0.5 z_95 + 0.5 z_96 + 0.25 z_97 + 0.5 z_98 + 0.5 z_99 + 1 z_100 + 1 z_101 + 0.5 z_102 + 0.5 z_103 + 1 z_104 + 1 z_105 + 1 z_106 + 0.5 z_107 + 0.5 z_108 + 1 z_109 + 0.5 z_110 + 0.5 z_111 + 0.5 z_112 + 0.25 z_113 + 0.5 z_114 + 0.5 z_115 + 0.5 z_116 + 0.25 z_117 + 0.5 z_118 + 0.5 z_119 + 1 z_120 + 1 z_121 + 0.5 z_122 + 0.5 z_123 + 1 z_124 <= 0
Binary
 z_0
 z_1
 z_2
 z_3
 z_4
 z_5
 z_6
 z_7
 z_8
 z_9
 z_10
 z_11
 z_12
 z_13
 z_14
 z_15
 z_16
 z_17
 z_18
 z_19
 z_20
 z_21
 z_22
 z_23
 z_24
 z_25
 z_26
 z_27
 z_28
 z_29
 z_30
 z_31
 z_32
 z_33
 z_34
 z_35
 z_36
 z_37
 z_38
 z_39
 z_40
 z_41
 z_42
 z_43
 z_44
 z_45
 z_46
 z_47
 z_48
 z_49
 z_50
 z_51
 z_52
 z_53
 z_54
 z_55
 z_56
 z_57
 z_58
 z_59
 z_60
 z_61
 z_62
 z_63
 z_64
 z_65
 z_66
 z_67
 z_68
 z_69
 z_70
 z_71
 z_72
 z_73
 z_74
 z_75
 z_76
 z_77
 z_78
 z_79
 z_80
 z_81
 z_82
 z_83
 z_84
 z_85
 z_86
 z_87
 z_88
 z_89
 z_90
 z_91
 z_92
 z_93
 z_94
 z_95
 z_96
 z_97
 z_98
 z_99
 z_100
 z_101
 z_102
 z_103
 z_104
 z_105
 z_106
 z_107
 z_108
 z_109
 z_110
 z_111
 z_112
 z_113
 z_114
 z_115
 z_116
 z_117
 z_118
 z_119
 z_120
 z_121
 z_122
 z_123
 z_124
End
